Features/ForMiniZinc/benchmark_puzzles/benchmarks4x4/50/puzzle3.dzn
S = 4;
start = [|13,0,12,4,0,0,0,1,11,0,14,0,3,0,0,0|
15,0,0,14,0,0,0,6,0,7,0,0,0,12,0,5|
9,0,0,16,10,15,7,0,0,0,12,0,0,0,0,0|
0,10,5,11,4,0,8,14,15,16,0,3,2,6,0,0|
0,15,0,7,8,14,0,3,12,0,13,0,0,0,6,1|
14,2,13,12,5,0,0,0,0,10,0,1,15,7,3,16|
0,0,1,0,13,16,10,15,0,2,0,0,14,0,0,0|
8,9,3,0,6,0,12,7,0,0,16,14,5,0,0,0|
10,0,0,0,0,0,0,0,14,11,0,0,12,0,5,0|
0,0,14,2,7,8,1,11,0,0,0,6,9,13,0,0|
12,0,11,15,0,0,5,0,1,0,0,0,6,14,7,10|
0,7,9,6,12,0,14,10,3,13,15,0,11,1,8,0|
0,0,0,8,3,6,15,0,0,0,7,12,0,0,1,0|
0,0,0,3,14,5,0,0,13,1,11,0,4,0,2,6|
6,14,0,0,0,0,11,12,0,0,0,0,7,0,15,8|
0,0,15,0,0,7,0,4,6,14,8,0,0,0,0,11|];